 &control
    calculation='bands'
    pseudo_dir = './',
    outdir='./',
    prefix='Fe'
	 verbosity='high'
 /
&system
    ibrav = 3, celldm(1) = 5.4991, nat= 1, ntyp= 1,
    nspin = 2, nbnd = 15,
    ecutwfc =120.0, ecutrho=1080.0
    starting_magnetization = 0.6
    nosym=.true.
    noinv = .true.
    occupations='smearing', smearing='cold', degauss=0.02
 /
 &electrons
    conv_thr = 1.0e-8
 /
ATOMIC_SPECIES
 Fe 55.8470 Fe.pbe-spn-kjpaw_psl.1.0.0.UPF
ATOMIC_POSITIONS
 Fe 0.0 0.0 0.0
K_POINTS crystal_b
  6
0.0000 0.0000 0.0000     20 ! G 	 
0.500 -0.5000 -0.5000	 20 ! H 
0.5000 0.0000 -0.5000	 20 ! N 
0.0000 0.0000 0.0000	    20 ! G 
0.7500 0.2500 -0.2500	 20 ! P 
0.5 0.5 0.5		          20 ! H 