&DOS
prefix='Fe'
outdir='./'
bz_sum='tetrahedra'
fildos='dos.dat'
/
